time,e11,e22,e33,e12,e13,e23,s11,s22,s33,s12,s13,s23
0,0,0,0,0,0,0,0,0,0,0,0,0
10001,-0.000420501,-0.000420501,0.0010001,-6.3e-36,5.57859e-61,1.22074e-26,0,0,65.623,0,0,0
20000,-0.000887753,-0.000887753,0.002,-5.48355e-28,1.01361e-49,1.28324e-22,0,0,92.5934,0,0,0
30001,-0.00138733,-0.00138733,0.0030001,-7.91789e-27,9.60135e-49,1.48336e-22,0,0,92.9859,0,0,0
40001,-0.00188686,-0.00188686,0.0040001,-2.40971e-26,6.10358e-48,2.06573e-22,0,0,93.375,0,0,0
50000,-0.00238634,-0.00238634,0.005,-3.17519e-26,1.06423e-47,8.11883e-23,0,0,93.7616,0,0,0
60000,-0.00288587,-0.00288587,0.006,-3.36149e-26,1.30605e-47,1.51425e-23,0,0,94.146,0,0,0
70000,-0.00338541,-0.00338541,0.007,-3.44734e-26,1.18286e-47,5.64715e-23,0,0,94.5281,0,0,0
80000,-0.00388495,-0.00388495,0.008,-4.06765e-26,1.23419e-47,7.14976e-23,0,0,94.9078,0,0,0
90000,-0.00438449,-0.00438449,0.009,-4.77973e-26,1.62926e-47,2.04554e-23,0,0,95.2853,0,0,0
100001,-0.00488408,-0.00488408,0.0100001,-4.55406e-26,2.26811e-47,-9.85648e-23,0,0,95.6604,0,0,0
110001,-0.00538363,-0.00538363,0.0110001,-3.05635e-26,3.44159e-47,-2.75732e-22,0,0,96.0333,0,0,0
120001,-0.00588318,-0.00588318,0.0120001,-1.19345e-26,4.00272e-47,-2.31588e-22,0,0,96.4039,0,0,0
130001,-0.00638274,-0.00638274,0.0130001,6.11034e-27,4.61769e-47,-3.04738e-22,0,0,96.7722,0,0,0
140001,-0.00688229,-0.00688229,0.0140001,2.71466e-26,5.39627e-47,-3.10222e-22,0,0,97.1383,0,0,0
150001,-0.00738185,-0.00738185,0.0150001,4.96316e-26,6.68337e-47,-2.48e-22,0,0,97.5022,0,0,0
160001,-0.00788141,-0.00788141,0.0160001,6.77239e-26,7.19197e-47,-2.64975e-22,0,0,97.8638,0,0,0
170001,-0.00838098,-0.00838098,0.0170001,8.42772e-26,7.54224e-47,-2.78607e-22,0,0,98.2232,0,0,0
180001,-0.00888054,-0.00888054,0.0180001,1.06965e-25,6.64563e-47,-4.60918e-22,0,0,98.5805,0,0,0
190001,-0.00938011,-0.00938011,0.0190001,1.36181e-25,8.65514e-47,-4.1704e-22,0,0,98.9355,0,0,0
200001,-0.00987969,-0.00987969,0.0200001,1.55602e-25,1.06741e-46,-3.15089e-22,0,0,99.2884,0,0,0
210001,-0.0103793,-0.0103793,0.0210001,1.74234e-25,1.17681e-46,-2.85816e-22,0,0,99.6391,0,0,0
220001,-0.0108788,-0.0108788,0.0220001,1.91964e-25,1.26384e-46,-2.68086e-22,0,0,99.9877,0,0,0
230001,-0.0113784,-0.0113784,0.0230001,2.01498e-25,1.75653e-46,-3.04121e-23,0,0,100.334,0,0,0
240001,-0.011878,-0.011878,0.0240001,2.01131e-25,1.7659e-46,-2.70988e-23,0,0,100.679,0,0,0
250001,-0.0123776,-0.0123776,0.0250001,1.99216e-25,2.02177e-46,9.85128e-23,0,0,101.021,0,0,0
260001,-0.0128772,-0.0128772,0.0260001,1.93741e-25,1.79549e-46,-2.19574e-23,0,0,101.361,0,0,0
270001,-0.0133768,-0.0133768,0.0270001,1.89098e-25,2.2907e-46,2.32588e-22,0,0,101.699,0,0,0
280001,-0.0138764,-0.0138764,0.0280001,1.72697e-25,2.31787e-46,2.18129e-22,0,0,102.035,0,0,0
290001,-0.014376,-0.014376,0.0290001,1.61108e-25,2.12849e-46,8.79006e-23,0,0,102.369,0,0,0
300001,-0.0148755,-0.0148755,0.0300001,1.568e-25,2.2305e-46,1.47484e-22,0,0,102.701,0,0,0
310001,-0.0153751,-0.0153751,0.0310001,1.40901e-25,2.50563e-46,2.98224e-22,0,0,103.031,0,0,0
320001,-0.0158748,-0.0158748,0.0320001,1.20465e-25,2.60355e-46,3.16908e-22,0,0,103.359,0,0,0
330001,-0.0163744,-0.0163744,0.0330001,9.33337e-26,3.03145e-46,5.95139e-22,0,0,103.685,0,0,0
340001,-0.016874,-0.016874,0.0340001,5.93836e-26,3.23369e-46,6.45551e-22,0,0,104.008,0,0,0
350001,-0.0173736,-0.0173736,0.0350001,1.41707e-26,3.61924e-46,7.59023e-22,0,0,104.33,0,0,0
360000,-0.0178731,-0.0178731,0.036,-3.86963e-26,4.06534e-46,9.02424e-22,0,0,104.65,0,0,0
370000,-0.0183727,-0.0183727,0.037,-9.3217e-26,4.60993e-46,8.21184e-22,0,0,104.968,0,0,0
380000,-0.0188724,-0.0188724,0.038,-1.43048e-25,5.03502e-46,8.00953e-22,0,0,105.285,0,0,0
390000,-0.019372,-0.019372,0.039,-1.94788e-25,5.29131e-46,9.0137e-22,0,0,105.599,0,0,0
400000,-0.0198716,-0.0198716,0.04,-2.50192e-25,5.95319e-46,8.3337e-22,0,0,105.911,0,0,0
410000,-0.0203712,-0.0203712,0.041,-3.05339e-25,6.53887e-46,8.13272e-22,0,0,106.221,0,0,0
420000,-0.0208709,-0.0208709,0.042,-3.64851e-25,6.751e-46,9.37012e-22,0,0,106.53,0,0,0
430000,-0.0213705,-0.0213705,0.043,-4.38493e-25,6.35529e-46,1.27091e-21,0,0,106.837,0,0,0
440000,-0.0218701,-0.0218701,0.044,-5.25999e-25,7.28342e-46,1.3524e-21,0,0,107.141,0,0,0
450000,-0.0223697,-0.0223697,0.045,-6.18844e-25,7.28475e-46,1.60087e-21,0,0,107.444,0,0,0
460000,-0.0228694,-0.0228694,0.046,-7.14131e-25,8.75334e-46,1.59169e-21,0,0,107.746,0,0,0
470000,-0.023369,-0.023369,0.047,-8.15109e-25,9.88876e-46,1.65864e-21,0,0,108.045,0,0,0
480000,-0.0238687,-0.0238687,0.048,-9.20908e-25,9.68819e-46,1.88266e-21,0,0,108.343,0,0,0
490000,-0.0243683,-0.0243683,0.049,-1.03949e-24,1.21988e-45,1.8625e-21,0,0,108.638,0,0,0
500000,-0.0248679,-0.0248679,0.05,-1.16e-24,1.26148e-45,2.03732e-21,0,0,108.932,0,0,0
510000,-0.0253676,-0.0253676,0.051,-1.29399e-24,1.20504e-45,2.3182e-21,0,0,109.225,0,0,0
520000,-0.0258672,-0.0258672,0.052,-1.44153e-24,1.43779e-45,2.40614e-21,0,0,109.515,0,0,0
530000,-0.0263669,-0.0263669,0.053,-1.58797e-24,1.85805e-45,2.35529e-21,0,0,109.804,0,0,0
540000,-0.0268665,-0.0268665,0.054,-1.73996e-24,2.08102e-45,2.44995e-21,0,0,110.091,0,0,0
550000,-0.0273662,-0.0273662,0.055,-1.89034e-24,2.34845e-45,2.49996e-21,0,0,110.377,0,0,0
560000,-0.0278658,-0.0278658,0.056,-2.05044e-24,2.66973e-45,2.55187e-21,0,0,110.66,0,0,0
570000,-0.0283655,-0.0283655,0.057,-2.21045e-24,3.01074e-45,2.58726e-21,0,0,110.942,0,0,0
580000,-0.0288652,-0.0288652,0.058,-2.37165e-24,3.58556e-45,2.52357e-21,0,0,111.223,0,0,0
590000,-0.0293648,-0.0293648,0.059,-2.53167e-24,3.86698e-45,2.58043e-21,0,0,111.501,0,0,0
600000,-0.0298645,-0.0298645,0.06,-2.69369e-24,4.34617e-45,2.56301e-21,0,0,111.779,0,0,0
610000,-0.0303642,-0.0303642,0.061,-2.8514e-24,4.91632e-45,2.50418e-21,0,0,112.054,0,0,0
620000,-0.0308638,-0.0308638,0.062,-3.01093e-24,4.97808e-45,2.62546e-21,0,0,112.328,0,0,0
630000,-0.0313635,-0.0313635,0.063,-3.16892e-24,5.63899e-45,2.54186e-21,0,0,112.6,0,0,0
640000,-0.0318632,-0.0318632,0.064,-3.33216e-24,5.32766e-45,2.77061e-21,0,0,112.871,0,0,0
650000,-0.0323628,-0.0323628,0.065,-3.49086e-24,6.84788e-45,2.4442e-21,0,0,113.14,0,0,0
660000,-0.0328625,-0.0328625,0.066,-3.63664e-24,7.5688e-45,2.33882e-21,0,0,113.408,0,0,0
670000,-0.0333622,-0.0333622,0.067,-3.78466e-24,7.83676e-45,2.36565e-21,0,0,113.674,0,0,0
680000,-0.0338619,-0.0338619,0.068,-3.94686e-24,7.09563e-45,2.67366e-21,0,0,113.938,0,0,0
690000,-0.0343616,-0.0343616,0.069,-4.10415e-24,8.13102e-45,2.51571e-21,0,0,114.201,0,0,0
700000,-0.0348612,-0.0348612,0.07,-4.25842e-24,8.5539e-45,2.50801e-21,0,0,114.463,0,0,0
710000,-0.0353609,-0.0353609,0.071,-4.418e-24,8.47948e-45,2.62268e-21,0,0,114.723,0,0,0
720000,-0.0358606,-0.0358606,0.072,-4.57992e-24,8.89327e-45,2.62673e-21,0,0,114.981,0,0,0
730000,-0.0363603,-0.0363603,0.073,-4.75166e-24,8.13739e-45,2.89367e-21,0,0,115.238,0,0,0
740000,-0.03686,-0.03686,0.074,-4.9374e-24,7.88537e-45,3.06351e-21,0,0,115.494,0,0,0
750000,-0.0373597,-0.0373597,0.075,-5.12483e-24,9.02535e-45,2.95257e-21,0,0,115.748,0,0,0
760000,-0.0378594,-0.0378594,0.076,-5.30236e-24,1.01998e-44,2.82652e-21,0,0,116.001,0,0,0
770000,-0.0383591,-0.0383591,0.077,-5.48566e-24,9.9661e-45,2.97482e-21,0,0,116.252,0,0,0
780000,-0.0388588,-0.0388588,0.078,-5.66785e-24,1.06899e-44,2.94304e-21,0,0,116.502,0,0,0
790000,-0.0393585,-0.0393585,0.079,-5.84681e-24,1.15531e-44,2.88475e-21,0,0,116.75,0,0,0
800000,-0.0398582,-0.0398582,0.08,-6.03253e-24,1.174e-44,2.95217e-21,0,0,116.997,0,0,0
810000,-0.0403579,-0.0403579,0.081,-6.21277e-24,1.30871e-44,2.82123e-21,0,0,117.243,0,0,0
820000,-0.0408576,-0.0408576,0.082,-6.38625e-24,1.36651e-44,2.80906e-21,0,0,117.487,0,0,0
830000,-0.0413573,-0.0413573,0.083,-6.56225e-24,1.40199e-44,2.83494e-21,0,0,117.73,0,0,0
840000,-0.041857,-0.041857,0.084,-6.74401e-24,1.29458e-44,3.079e-21,0,0,117.972,0,0,0
850000,-0.0423567,-0.0423567,0.085,-6.94533e-24,1.19321e-44,3.32685e-21,0,0,118.213,0,0,0
860000,-0.0428564,-0.0428564,0.086,-7.16229e-24,1.08169e-44,3.59657e-21,0,0,118.452,0,0,0
870000,-0.0433561,-0.0433561,0.087,-7.38953e-24,1.11548e-44,3.66833e-21,0,0,118.689,0,0,0
880000,-0.0438558,-0.0438558,0.088,-7.6251e-24,1.2044e-44,3.67587e-21,0,0,118.926,0,0,0
890000,-0.0443555,-0.0443555,0.089,-7.85684e-24,1.10069e-44,3.92283e-21,0,0,119.161,0,0,0
900000,-0.0448553,-0.0448553,0.09,-8.10929e-24,9.95376e-45,4.18683e-21,0,0,119.395,0,0,0
910000,-0.045355,-0.045355,0.091,-8.3749e-24,1.06686e-44,4.24303e-21,0,0,119.628,0,0,0
920000,-0.0458547,-0.0458547,0.092,-8.64421e-24,1.16306e-44,4.27289e-21,0,0,119.859,0,0,0
930000,-0.0463544,-0.0463544,0.093,-8.91998e-24,1.0688e-44,4.52425e-21,0,0,120.089,0,0,0
940000,-0.0468541,-0.0468541,0.094,-9.20026e-24,1.18242e-44,4.54118e-21,0,0,120.318,0,0,0
950000,-0.0473539,-0.0473539,0.095,-9.48297e-24,1.3095e-44,4.5466e-21,0,0,120.546,0,0,0
960000,-0.0478536,-0.0478536,0.096,-9.76195e-24,1.47832e-44,4.50403e-21,0,0,120.773,0,0,0
970000,-0.0483533,-0.0483533,0.097,-1.00508e-23,1.41906e-44,4.70451e-21,0,0,120.998,0,0,0
980000,-0.048853,-0.048853,0.098,-1.03457e-23,1.37367e-44,4.88863e-21,0,0,121.222,0,0,0
990000,-0.0493528,-0.0493528,0.099,-1.06477e-23,1.6861e-44,4.73597e-21,0,0,121.445,0,0,0
1e+06,-0.0498525,-0.0498525,0.1,-1.09348e-23,2.02517e-44,4.54826e-21,0,0,121.667,0,0,0
1.01e+06,-0.0503522,-0.0503522,0.101,-1.12083e-23,2.3219e-44,4.39159e-21,0,0,121.888,0,0,0
1.02e+06,-0.050852,-0.050852,0.102,-1.14895e-23,2.17656e-44,4.63647e-21,0,0,122.108,0,0,0
1.03e+06,-0.0513517,-0.0513517,0.103,-1.17675e-23,2.62962e-44,4.35769e-21,0,0,122.326,0,0,0
1.04e+06,-0.0518514,-0.0518514,0.104,-1.20393e-23,2.71029e-44,4.39423e-21,0,0,122.544,0,0,0
1.05e+06,-0.0523512,-0.0523512,0.105,-1.23161e-23,2.68792e-44,4.51843e-21,0,0,122.76,0,0,0
1.06e+06,-0.0528509,-0.0528509,0.106,-1.26038e-23,2.51908e-44,4.76513e-21,0,0,122.975,0,0,0
1.07e+06,-0.0533507,-0.0533507,0.107,-1.29023e-23,2.5702e-44,4.84197e-21,0,0,123.189,0,0,0
1.08e+06,-0.0538504,-0.0538504,0.108,-1.31962e-23,2.85709e-44,4.73206e-21,0,0,123.402,0,0,0
1.09e+06,-0.0543501,-0.0543501,0.109,-1.34945e-23,2.79352e-44,4.89149e-21,0,0,123.614,0,0,0
1.1e+06,-0.0548499,-0.0548499,0.11,-1.38049e-23,2.77879e-44,5.02148e-21,0,0,123.825,0,0,0
1.11e+06,-0.0553496,-0.0553496,0.111,-1.41238e-23,2.50522e-44,5.33833e-21,0,0,124.035,0,0,0
1.12e+06,-0.0558494,-0.0558494,0.112,-1.44533e-23,2.89086e-44,5.19628e-21,0,0,124.244,0,0,0
1.13e+06,-0.0563491,-0.0563491,0.113,-1.47753e-23,3.26721e-44,5.059e-21,0,0,124.452,0,0,0
1.14e+06,-0.0568489,-0.0568489,0.114,-1.50958e-23,3.08698e-44,5.29495e-21,0,0,124.658,0,0,0
1.15e+06,-0.0573486,-0.0573486,0.115,-1.54308e-23,3.0284e-44,5.45694e-21,0,0,124.864,0,0,0
1.16e+06,-0.0578484,-0.0578484,0.116,-1.57799e-23,2.76298e-44,5.75802e-21,0,0,125.069,0,0,0
1.17e+06,-0.0583481,-0.0583481,0.117,-1.61385e-23,2.91851e-44,5.79508e-21,0,0,125.273,0,0,0
1.18e+06,-0.0588479,-0.0588479,0.118,-1.6491e-23,3.49758e-44,5.56772e-21,0,0,125.476,0,0,0
1.19e+06,-0.0593476,-0.0593476,0.119,-1.6849e-23,3.15618e-44,5.90206e-21,0,0,125.678,0,0,0
1.2e+06,-0.0598474,-0.0598474,0.12,-1.7212e-23,3.5754e-44,5.78562e-21,0,0,125.879,0,0,0
1.21e+06,-0.0603472,-0.0603472,0.121,-1.75793e-23,3.45629e-44,5.98476e-21,0,0,126.079,0,0,0
1.22e+06,-0.0608469,-0.0608469,0.122,-1.79502e-23,3.90731e-44,5.86192e-21,0,0,126.278,0,0,0
1.23e+06,-0.0613467,-0.0613467,0.123,-1.83126e-23,4.359e-44,5.73556e-21,0,0,126.476,0,0,0
1.24e+06,-0.0618464,-0.0618464,0.124,-1.86606e-23,4.99962e-44,5.49985e-21,0,0,126.673,0,0,0
1.25e+06,-0.0623462,-0.0623462,0.125,-1.90105e-23,4.97241e-44,5.62587e-21,0,0,126.869,0,0,0
1.26e+06,-0.062846,-0.062846,0.126,-1.93692e-23,4.94173e-44,5.75708e-21,0,0,127.065,0,0,0
1.27e+06,-0.0633457,-0.0633457,0.127,-1.97296e-23,5.09372e-44,5.79253e-21,0,0,127.259,0,0,0
1.28e+06,-0.0638455,-0.0638455,0.128,-2.01015e-23,4.81188e-44,6.05289e-21,0,0,127.453,0,0,0
1.29e+06,-0.0643453,-0.0643453,0.129,-2.04845e-23,4.7535e-44,6.20452e-21,0,0,127.646,0,0,0
1.3e+06,-0.064845,-0.064845,0.13,-2.08724e-23,4.81671e-44,6.29681e-21,0,0,127.838,0,0,0
1.31e+06,-0.0653448,-0.0653448,0.131,-2.12745e-23,4.3093e-44,6.66693e-21,0,0,128.029,0,0,0
1.32e+06,-0.0658446,-0.0658446,0.132,-2.16981e-23,4.20703e-44,6.8559e-21,0,0,128.219,0,0,0
1.33e+06,-0.0663443,-0.0663443,0.133,-2.21339e-23,3.8617e-44,7.15914e-21,0,0,128.408,0,0,0
1.34e+06,-0.0668441,-0.0668441,0.134,-2.25863e-23,4.0687e-44,7.22167e-21,0,0,128.597,0,0,0
1.35e+06,-0.0673439,-0.0673439,0.135,-2.30518e-23,3.46143e-44,7.64787e-21,0,0,128.784,0,0,0
1.36e+06,-0.0678436,-0.0678436,0.136,-2.35386e-23,3.38616e-44,7.85163e-21,0,0,128.971,0,0,0
1.37e+06,-0.0683434,-0.0683434,0.137,-2.40292e-23,3.33626e-44,8.04063e-21,0,0,129.157,0,0,0
1.38e+06,-0.0688432,-0.0688432,0.138,-2.45184e-23,4.29369e-44,7.8101e-21,0,0,129.343,0,0,0
1.39e+06,-0.069343,-0.069343,0.139,-2.49944e-23,5.25259e-44,7.57595e-21,0,0,129.527,0,0,0
1.4e+06,-0.0698428,-0.0698428,0.14,-2.54581e-23,5.95494e-44,7.44058e-21,0,0,129.711,0,0,0
1.41e+06,-0.0703425,-0.0703425,0.141,-2.59195e-23,6.56691e-44,7.34313e-21,0,0,129.894,0,0,0
1.42e+06,-0.0708423,-0.0708423,0.142,-2.63732e-23,7.09352e-44,7.27523e-21,0,0,130.076,0,0,0
1.43e+06,-0.0713421,-0.0713421,0.143,-2.68333e-23,7.09995e-44,7.40897e-21,0,0,130.257,0,0,0
1.44e+06,-0.0718419,-0.0718419,0.144,-2.73008e-23,7.0385e-44,7.56931e-21,0,0,130.438,0,0,0
1.45e+06,-0.0723417,-0.0723417,0.145,-2.7773e-23,7.00932e-44,7.71657e-21,0,0,130.618,0,0,0
1.46e+06,-0.0728414,-0.0728414,0.146,-2.82569e-23,7.18422e-44,7.7964e-21,0,0,130.797,0,0,0
1.47e+06,-0.0733412,-0.0733412,0.147,-2.87385e-23,7.90217e-44,7.68295e-21,0,0,130.975,0,0,0
1.48e+06,-0.073841,-0.073841,0.148,-2.92196e-23,7.76673e-44,7.86511e-21,0,0,131.153,0,0,0
1.49e+06,-0.0743408,-0.0743408,0.149,-2.97095e-23,8.07565e-44,7.89886e-21,0,0,131.33,0,0,0
1.5e+06,-0.0748406,-0.0748406,0.15,-3.02047e-23,8.41889e-44,7.92447e-21,0,0,131.506,0,0,0
1.51e+06,-0.0753404,-0.0753404,0.151,-3.07049e-23,8.39671e-44,8.07243e-21,0,0,131.682,0,0,0
1.52e+06,-0.0758401,-0.0758401,0.152,-3.12142e-23,8.46916e-44,8.19253e-21,0,0,131.857,0,0,0
1.53e+06,-0.0763399,-0.0763399,0.153,-3.17218e-23,8.90862e-44,8.19204e-21,0,0,132.031,0,0,0
1.54e+06,-0.0768397,-0.0768397,0.154,-3.22199e-23,1.04176e-43,7.85276e-21,0,0,132.204,0,0,0
1.55e+06,-0.0773395,-0.0773395,0.155,-3.27046e-23,1.09741e-43,7.80546e-21,0,0,132.377,0,0,0
1.56e+06,-0.0778393,-0.0778393,0.156,-3.3198e-23,1.08701e-43,7.9648e-21,0,0,132.549,0,0,0
1.57e+06,-0.0783391,-0.0783391,0.157,-3.3698e-23,1.03823e-43,8.23827e-21,0,0,132.721,0,0,0
1.58e+06,-0.0788389,-0.0788389,0.158,-3.42187e-23,1.01648e-43,8.43958e-21,0,0,132.892,0,0,0
1.59e+06,-0.0793387,-0.0793387,0.159,-3.47507e-23,9.90281e-44,8.65604e-21,0,0,133.062,0,0,0
1.6e+06,-0.0798385,-0.0798385,0.16,-3.52891e-23,9.95481e-44,8.78183e-21,0,0,133.232,0,0,0
1.61e+06,-0.0803383,-0.0803383,0.161,-3.58348e-23,1.08466e-43,8.67495e-21,0,0,133.401,0,0,0
1.62e+06,-0.0808381,-0.0808381,0.162,-3.63632e-23,1.24405e-43,8.36616e-21,0,0,133.569,0,0,0
1.63e+06,-0.0813379,-0.0813379,0.163,-3.68781e-23,1.38337e-43,8.11154e-21,0,0,133.737,0,0,0
1.64e+06,-0.0818377,-0.0818377,0.164,-3.7383e-23,1.43225e-43,8.09942e-21,0,0,133.904,0,0,0
1.65e+06,-0.0823375,-0.0823375,0.165,-3.78874e-23,1.5081e-43,8.01629e-21,0,0,134.07,0,0,0
1.66e+06,-0.0828373,-0.0828373,0.166,-3.83866e-23,1.57603e-43,7.95284e-21,0,0,134.236,0,0,0
1.67e+06,-0.0833371,-0.0833371,0.167,-3.88824e-23,1.62078e-43,7.94876e-21,0,0,134.402,0,0,0
1.68e+06,-0.0838369,-0.0838369,0.168,-3.93718e-23,1.6941e-43,7.86856e-21,0,0,134.566,0,0,0
1.69e+06,-0.0843367,-0.0843367,0.169,-3.9861e-23,1.73596e-43,7.86927e-21,0,0,134.73,0,0,0
1.7e+06,-0.0848365,-0.0848365,0.17,-4.03482e-23,1.83074e-43,7.73782e-21,0,0,134.894,0,0,0
1.71e+06,-0.0853363,-0.0853363,0.171,-4.08173e-23,2.02938e-43,7.34499e-21,0,0,135.057,0,0,0
1.72e+06,-0.0858361,-0.0858361,0.172,-4.12777e-23,2.0131e-43,7.4771e-21,0,0,135.219,0,0,0
1.73e+06,-0.0863359,-0.0863359,0.173,-4.1737e-23,2.0754e-43,7.41761e-21,0,0,135.381,0,0,0
1.74e+06,-0.0868357,-0.0868357,0.174,-4.21989e-23,2.08867e-43,7.4771e-21,0,0,135.543,0,0,0
1.75e+06,-0.0873355,-0.0873355,0.175,-4.26657e-23,2.10459e-43,7.53175e-21,0,0,135.703,0,0,0
1.76e+06,-0.0878353,-0.0878353,0.176,-4.31402e-23,2.06619e-43,7.71541e-21,0,0,135.864,0,0,0
1.77e+06,-0.0883351,-0.0883351,0.177,-4.36181e-23,2.16293e-43,7.58703e-21,0,0,136.023,0,0,0
1.78e+06,-0.0888349,-0.0888349,0.178,-4.40891e-23,2.15391e-43,7.69794e-21,0,0,136.182,0,0,0
1.79e+06,-0.0893347,-0.0893347,0.179,-4.45572e-23,2.35892e-43,7.32492e-21,0,0,136.341,0,0,0
1.8e+06,-0.0898345,-0.0898345,0.18,-4.50182e-23,2.33247e-43,7.47025e-21,0,0,136.499,0,0,0
1.81e+06,-0.0903343,-0.0903343,0.181,-4.5482e-23,2.34964e-43,7.51823e-21,0,0,136.657,0,0,0
1.82e+06,-0.0908341,-0.0908341,0.182,-4.59476e-23,2.35619e-43,7.58937e-21,0,0,136.814,0,0,0
1.83e+06,-0.0913339,-0.0913339,0.183,-4.64217e-23,2.27578e-43,7.85063e-21,0,0,136.971,0,0,0
1.84e+06,-0.0918338,-0.0918338,0.184,-4.69208e-23,2.25813e-43,7.98536e-21,0,0,137.127,0,0,0
1.85e+06,-0.0923336,-0.0923336,0.185,-4.7417e-23,2.37242e-43,7.83763e-21,0,0,137.282,0,0,0
1.86e+06,-0.0928334,-0.0928334,0.186,-4.79079e-23,2.36286e-43,7.94904e-21,0,0,137.438,0,0,0
1.87e+06,-0.0933332,-0.0933332,0.187,-4.84036e-23,2.31817e-43,8.13323e-21,0,0,137.592,0,0,0
1.88e+06,-0.093833,-0.093833,0.188,-4.89122e-23,2.29322e-43,8.27975e-21,0,0,137.746,0,0,0
1.89e+06,-0.0943328,-0.0943328,0.189,-4.94229e-23,2.37261e-43,8.21331e-21,0,0,137.9,0,0,0
1.9e+06,-0.0948326,-0.0948326,0.19,-4.99413e-23,2.38778e-43,8.28082e-21,0,0,138.053,0,0,0
1.91e+06,-0.0953324,-0.0953324,0.191,-5.04555e-23,2.37386e-43,8.40272e-21,0,0,138.206,0,0,0
1.92e+06,-0.0958323,-0.0958323,0.192,-5.09824e-23,2.42318e-43,8.40438e-21,0,0,138.359,0,0,0
1.93e+06,-0.0963321,-0.0963321,0.193,-5.15031e-23,2.49066e-43,8.36791e-21,0,0,138.511,0,0,0
1.94e+06,-0.0968319,-0.0968319,0.194,-5.20204e-23,2.57326e-43,8.30164e-21,0,0,138.662,0,0,0
1.95e+06,-0.0973317,-0.0973317,0.195,-5.25469e-23,2.58942e-43,8.3677e-21,0,0,138.813,0,0,0
1.96e+06,-0.0978315,-0.0978315,0.196,-5.30739e-23,2.56649e-43,8.50643e-21,0,0,138.964,0,0,0
1.97e+06,-0.0983313,-0.0983313,0.197,-5.36086e-23,2.58388e-43,8.57105e-21,0,0,139.114,0,0,0
1.98e+06,-0.0988312,-0.0988312,0.198,-5.4141e-23,2.59566e-43,8.64387e-21,0,0,139.263,0,0,0
1.99e+06,-0.099331,-0.099331,0.199,-5.46786e-23,2.63144e-43,8.67388e-21,0,0,139.413,0,0,0
2e+06,-0.0998308,-0.0998308,0.2,-5.52197e-23,2.66513e-43,8.70893e-21,0,0,139.562,0,0,0
